n = 54;
rows = 864;
supports = [|
    1,2,
  | 1,3,
  | 1,4,
  | 1,5,
  | 1,6,
  | 1,7,
  | 1,8,
  | 1,9,
  | 1,47,
  | 1,48,
  | 1,49,
  | 1,50,
  | 1,51,
  | 1,52,
  | 1,53,
  | 1,54,
  | 2,1,
  | 2,3,
  | 2,4,
  | 2,5,
  | 2,6,
  | 2,7,
  | 2,8,
  | 2,9,
  | 2,10,
  | 2,48,
  | 2,49,
  | 2,50,
  | 2,51,
  | 2,52,
  | 2,53,
  | 2,54,
  | 3,1,
  | 3,2,
  | 3,4,
  | 3,5,
  | 3,6,
  | 3,7,
  | 3,8,
  | 3,9,
  | 3,10,
  | 3,11,
  | 3,49,
  | 3,50,
  | 3,51,
  | 3,52,
  | 3,53,
  | 3,54,
  | 4,1,
  | 4,2,
  | 4,3,
  | 4,5,
  | 4,6,
  | 4,7,
  | 4,8,
  | 4,9,
  | 4,10,
  | 4,11,
  | 4,12,
  | 4,50,
  | 4,51,
  | 4,52,
  | 4,53,
  | 4,54,
  | 5,1,
  | 5,2,
  | 5,3,
  | 5,4,
  | 5,6,
  | 5,7,
  | 5,8,
  | 5,9,
  | 5,10,
  | 5,11,
  | 5,12,
  | 5,13,
  | 5,51,
  | 5,52,
  | 5,53,
  | 5,54,
  | 6,1,
  | 6,2,
  | 6,3,
  | 6,4,
  | 6,5,
  | 6,7,
  | 6,8,
  | 6,9,
  | 6,10,
  | 6,11,
  | 6,12,
  | 6,13,
  | 6,14,
  | 6,52,
  | 6,53,
  | 6,54,
  | 7,1,
  | 7,2,
  | 7,3,
  | 7,4,
  | 7,5,
  | 7,6,
  | 7,8,
  | 7,9,
  | 7,10,
  | 7,11,
  | 7,12,
  | 7,13,
  | 7,14,
  | 7,15,
  | 7,53,
  | 7,54,
  | 8,1,
  | 8,2,
  | 8,3,
  | 8,4,
  | 8,5,
  | 8,6,
  | 8,7,
  | 8,9,
  | 8,10,
  | 8,11,
  | 8,12,
  | 8,13,
  | 8,14,
  | 8,15,
  | 8,16,
  | 8,54,
  | 9,1,
  | 9,2,
  | 9,3,
  | 9,4,
  | 9,5,
  | 9,6,
  | 9,7,
  | 9,8,
  | 9,10,
  | 9,11,
  | 9,12,
  | 9,13,
  | 9,14,
  | 9,15,
  | 9,16,
  | 9,17,
  | 10,2,
  | 10,3,
  | 10,4,
  | 10,5,
  | 10,6,
  | 10,7,
  | 10,8,
  | 10,9,
  | 10,11,
  | 10,12,
  | 10,13,
  | 10,14,
  | 10,15,
  | 10,16,
  | 10,17,
  | 10,18,
  | 11,3,
  | 11,4,
  | 11,5,
  | 11,6,
  | 11,7,
  | 11,8,
  | 11,9,
  | 11,10,
  | 11,12,
  | 11,13,
  | 11,14,
  | 11,15,
  | 11,16,
  | 11,17,
  | 11,18,
  | 11,19,
  | 12,4,
  | 12,5,
  | 12,6,
  | 12,7,
  | 12,8,
  | 12,9,
  | 12,10,
  | 12,11,
  | 12,13,
  | 12,14,
  | 12,15,
  | 12,16,
  | 12,17,
  | 12,18,
  | 12,19,
  | 12,20,
  | 13,5,
  | 13,6,
  | 13,7,
  | 13,8,
  | 13,9,
  | 13,10,
  | 13,11,
  | 13,12,
  | 13,14,
  | 13,15,
  | 13,16,
  | 13,17,
  | 13,18,
  | 13,19,
  | 13,20,
  | 13,21,
  | 14,6,
  | 14,7,
  | 14,8,
  | 14,9,
  | 14,10,
  | 14,11,
  | 14,12,
  | 14,13,
  | 14,15,
  | 14,16,
  | 14,17,
  | 14,18,
  | 14,19,
  | 14,20,
  | 14,21,
  | 14,22,
  | 15,7,
  | 15,8,
  | 15,9,
  | 15,10,
  | 15,11,
  | 15,12,
  | 15,13,
  | 15,14,
  | 15,16,
  | 15,17,
  | 15,18,
  | 15,19,
  | 15,20,
  | 15,21,
  | 15,22,
  | 15,23,
  | 16,8,
  | 16,9,
  | 16,10,
  | 16,11,
  | 16,12,
  | 16,13,
  | 16,14,
  | 16,15,
  | 16,17,
  | 16,18,
  | 16,19,
  | 16,20,
  | 16,21,
  | 16,22,
  | 16,23,
  | 16,24,
  | 17,9,
  | 17,10,
  | 17,11,
  | 17,12,
  | 17,13,
  | 17,14,
  | 17,15,
  | 17,16,
  | 17,18,
  | 17,19,
  | 17,20,
  | 17,21,
  | 17,22,
  | 17,23,
  | 17,24,
  | 17,25,
  | 18,10,
  | 18,11,
  | 18,12,
  | 18,13,
  | 18,14,
  | 18,15,
  | 18,16,
  | 18,17,
  | 18,19,
  | 18,20,
  | 18,21,
  | 18,22,
  | 18,23,
  | 18,24,
  | 18,25,
  | 18,26,
  | 19,11,
  | 19,12,
  | 19,13,
  | 19,14,
  | 19,15,
  | 19,16,
  | 19,17,
  | 19,18,
  | 19,20,
  | 19,21,
  | 19,22,
  | 19,23,
  | 19,24,
  | 19,25,
  | 19,26,
  | 19,27,
  | 20,12,
  | 20,13,
  | 20,14,
  | 20,15,
  | 20,16,
  | 20,17,
  | 20,18,
  | 20,19,
  | 20,21,
  | 20,22,
  | 20,23,
  | 20,24,
  | 20,25,
  | 20,26,
  | 20,27,
  | 20,28,
  | 21,13,
  | 21,14,
  | 21,15,
  | 21,16,
  | 21,17,
  | 21,18,
  | 21,19,
  | 21,20,
  | 21,22,
  | 21,23,
  | 21,24,
  | 21,25,
  | 21,26,
  | 21,27,
  | 21,28,
  | 21,29,
  | 22,14,
  | 22,15,
  | 22,16,
  | 22,17,
  | 22,18,
  | 22,19,
  | 22,20,
  | 22,21,
  | 22,23,
  | 22,24,
  | 22,25,
  | 22,26,
  | 22,27,
  | 22,28,
  | 22,29,
  | 22,30,
  | 23,15,
  | 23,16,
  | 23,17,
  | 23,18,
  | 23,19,
  | 23,20,
  | 23,21,
  | 23,22,
  | 23,24,
  | 23,25,
  | 23,26,
  | 23,27,
  | 23,28,
  | 23,29,
  | 23,30,
  | 23,31,
  | 24,16,
  | 24,17,
  | 24,18,
  | 24,19,
  | 24,20,
  | 24,21,
  | 24,22,
  | 24,23,
  | 24,25,
  | 24,26,
  | 24,27,
  | 24,28,
  | 24,29,
  | 24,30,
  | 24,31,
  | 24,32,
  | 25,17,
  | 25,18,
  | 25,19,
  | 25,20,
  | 25,21,
  | 25,22,
  | 25,23,
  | 25,24,
  | 25,26,
  | 25,27,
  | 25,28,
  | 25,29,
  | 25,30,
  | 25,31,
  | 25,32,
  | 25,33,
  | 26,18,
  | 26,19,
  | 26,20,
  | 26,21,
  | 26,22,
  | 26,23,
  | 26,24,
  | 26,25,
  | 26,27,
  | 26,28,
  | 26,29,
  | 26,30,
  | 26,31,
  | 26,32,
  | 26,33,
  | 26,34,
  | 27,19,
  | 27,20,
  | 27,21,
  | 27,22,
  | 27,23,
  | 27,24,
  | 27,25,
  | 27,26,
  | 27,28,
  | 27,29,
  | 27,30,
  | 27,31,
  | 27,32,
  | 27,33,
  | 27,34,
  | 27,35,
  | 28,20,
  | 28,21,
  | 28,22,
  | 28,23,
  | 28,24,
  | 28,25,
  | 28,26,
  | 28,27,
  | 28,29,
  | 28,30,
  | 28,31,
  | 28,32,
  | 28,33,
  | 28,34,
  | 28,35,
  | 28,36,
  | 29,21,
  | 29,22,
  | 29,23,
  | 29,24,
  | 29,25,
  | 29,26,
  | 29,27,
  | 29,28,
  | 29,30,
  | 29,31,
  | 29,32,
  | 29,33,
  | 29,34,
  | 29,35,
  | 29,36,
  | 29,37,
  | 30,22,
  | 30,23,
  | 30,24,
  | 30,25,
  | 30,26,
  | 30,27,
  | 30,28,
  | 30,29,
  | 30,31,
  | 30,32,
  | 30,33,
  | 30,34,
  | 30,35,
  | 30,36,
  | 30,37,
  | 30,38,
  | 31,23,
  | 31,24,
  | 31,25,
  | 31,26,
  | 31,27,
  | 31,28,
  | 31,29,
  | 31,30,
  | 31,32,
  | 31,33,
  | 31,34,
  | 31,35,
  | 31,36,
  | 31,37,
  | 31,38,
  | 31,39,
  | 32,24,
  | 32,25,
  | 32,26,
  | 32,27,
  | 32,28,
  | 32,29,
  | 32,30,
  | 32,31,
  | 32,33,
  | 32,34,
  | 32,35,
  | 32,36,
  | 32,37,
  | 32,38,
  | 32,39,
  | 32,40,
  | 33,25,
  | 33,26,
  | 33,27,
  | 33,28,
  | 33,29,
  | 33,30,
  | 33,31,
  | 33,32,
  | 33,34,
  | 33,35,
  | 33,36,
  | 33,37,
  | 33,38,
  | 33,39,
  | 33,40,
  | 33,41,
  | 34,26,
  | 34,27,
  | 34,28,
  | 34,29,
  | 34,30,
  | 34,31,
  | 34,32,
  | 34,33,
  | 34,35,
  | 34,36,
  | 34,37,
  | 34,38,
  | 34,39,
  | 34,40,
  | 34,41,
  | 34,42,
  | 35,27,
  | 35,28,
  | 35,29,
  | 35,30,
  | 35,31,
  | 35,32,
  | 35,33,
  | 35,34,
  | 35,36,
  | 35,37,
  | 35,38,
  | 35,39,
  | 35,40,
  | 35,41,
  | 35,42,
  | 35,43,
  | 36,28,
  | 36,29,
  | 36,30,
  | 36,31,
  | 36,32,
  | 36,33,
  | 36,34,
  | 36,35,
  | 36,37,
  | 36,38,
  | 36,39,
  | 36,40,
  | 36,41,
  | 36,42,
  | 36,43,
  | 36,44,
  | 37,29,
  | 37,30,
  | 37,31,
  | 37,32,
  | 37,33,
  | 37,34,
  | 37,35,
  | 37,36,
  | 37,38,
  | 37,39,
  | 37,40,
  | 37,41,
  | 37,42,
  | 37,43,
  | 37,44,
  | 37,45,
  | 38,30,
  | 38,31,
  | 38,32,
  | 38,33,
  | 38,34,
  | 38,35,
  | 38,36,
  | 38,37,
  | 38,39,
  | 38,40,
  | 38,41,
  | 38,42,
  | 38,43,
  | 38,44,
  | 38,45,
  | 38,46,
  | 39,31,
  | 39,32,
  | 39,33,
  | 39,34,
  | 39,35,
  | 39,36,
  | 39,37,
  | 39,38,
  | 39,40,
  | 39,41,
  | 39,42,
  | 39,43,
  | 39,44,
  | 39,45,
  | 39,46,
  | 39,47,
  | 40,32,
  | 40,33,
  | 40,34,
  | 40,35,
  | 40,36,
  | 40,37,
  | 40,38,
  | 40,39,
  | 40,41,
  | 40,42,
  | 40,43,
  | 40,44,
  | 40,45,
  | 40,46,
  | 40,47,
  | 40,48,
  | 41,33,
  | 41,34,
  | 41,35,
  | 41,36,
  | 41,37,
  | 41,38,
  | 41,39,
  | 41,40,
  | 41,42,
  | 41,43,
  | 41,44,
  | 41,45,
  | 41,46,
  | 41,47,
  | 41,48,
  | 41,49,
  | 42,34,
  | 42,35,
  | 42,36,
  | 42,37,
  | 42,38,
  | 42,39,
  | 42,40,
  | 42,41,
  | 42,43,
  | 42,44,
  | 42,45,
  | 42,46,
  | 42,47,
  | 42,48,
  | 42,49,
  | 42,50,
  | 43,35,
  | 43,36,
  | 43,37,
  | 43,38,
  | 43,39,
  | 43,40,
  | 43,41,
  | 43,42,
  | 43,44,
  | 43,45,
  | 43,46,
  | 43,47,
  | 43,48,
  | 43,49,
  | 43,50,
  | 43,51,
  | 44,36,
  | 44,37,
  | 44,38,
  | 44,39,
  | 44,40,
  | 44,41,
  | 44,42,
  | 44,43,
  | 44,45,
  | 44,46,
  | 44,47,
  | 44,48,
  | 44,49,
  | 44,50,
  | 44,51,
  | 44,52,
  | 45,37,
  | 45,38,
  | 45,39,
  | 45,40,
  | 45,41,
  | 45,42,
  | 45,43,
  | 45,44,
  | 45,46,
  | 45,47,
  | 45,48,
  | 45,49,
  | 45,50,
  | 45,51,
  | 45,52,
  | 45,53,
  | 46,38,
  | 46,39,
  | 46,40,
  | 46,41,
  | 46,42,
  | 46,43,
  | 46,44,
  | 46,45,
  | 46,47,
  | 46,48,
  | 46,49,
  | 46,50,
  | 46,51,
  | 46,52,
  | 46,53,
  | 46,54,
  | 47,1,
  | 47,39,
  | 47,40,
  | 47,41,
  | 47,42,
  | 47,43,
  | 47,44,
  | 47,45,
  | 47,46,
  | 47,48,
  | 47,49,
  | 47,50,
  | 47,51,
  | 47,52,
  | 47,53,
  | 47,54,
  | 48,1,
  | 48,2,
  | 48,40,
  | 48,41,
  | 48,42,
  | 48,43,
  | 48,44,
  | 48,45,
  | 48,46,
  | 48,47,
  | 48,49,
  | 48,50,
  | 48,51,
  | 48,52,
  | 48,53,
  | 48,54,
  | 49,1,
  | 49,2,
  | 49,3,
  | 49,41,
  | 49,42,
  | 49,43,
  | 49,44,
  | 49,45,
  | 49,46,
  | 49,47,
  | 49,48,
  | 49,50,
  | 49,51,
  | 49,52,
  | 49,53,
  | 49,54,
  | 50,1,
  | 50,2,
  | 50,3,
  | 50,4,
  | 50,42,
  | 50,43,
  | 50,44,
  | 50,45,
  | 50,46,
  | 50,47,
  | 50,48,
  | 50,49,
  | 50,51,
  | 50,52,
  | 50,53,
  | 50,54,
  | 51,1,
  | 51,2,
  | 51,3,
  | 51,4,
  | 51,5,
  | 51,43,
  | 51,44,
  | 51,45,
  | 51,46,
  | 51,47,
  | 51,48,
  | 51,49,
  | 51,50,
  | 51,52,
  | 51,53,
  | 51,54,
  | 52,1,
  | 52,2,
  | 52,3,
  | 52,4,
  | 52,5,
  | 52,6,
  | 52,44,
  | 52,45,
  | 52,46,
  | 52,47,
  | 52,48,
  | 52,49,
  | 52,50,
  | 52,51,
  | 52,53,
  | 52,54,
  | 53,1,
  | 53,2,
  | 53,3,
  | 53,4,
  | 53,5,
  | 53,6,
  | 53,7,
  | 53,45,
  | 53,46,
  | 53,47,
  | 53,48,
  | 53,49,
  | 53,50,
  | 53,51,
  | 53,52,
  | 53,54,
  | 54,1,
  | 54,2,
  | 54,3,
  | 54,4,
  | 54,5,
  | 54,6,
  | 54,7,
  | 54,8,
  | 54,46,
  | 54,47,
  | 54,48,
  | 54,49,
  | 54,50,
  | 54,51,
  | 54,52,
  | 54,53 |];

t = 124;

indexes = [|
    0,2,
  | 0,6,
  | 0,10,
  | 0,17,
  | 0,31,
  | 0,43,
  | 0,44,
  | 0,46,
  | 0,49,
  | 1,17,
  | 1,40,
  | 2,5,
  | 2,14,
  | 2,26,
  | 2,31,
  | 2,43,
  | 2,46,
  | 2,52,
  | 3,9,
  | 3,33,
  | 3,48,
  | 4,8,
  | 4,25,
  | 4,28,
  | 4,49,
  | 5,14,
  | 5,26,
  | 6,25,
  | 6,46,
  | 6,49,
  | 7,13,
  | 7,27,
  | 7,32,
  | 7,34,
  | 8,29,
  | 8,34,
  | 9,33,
  | 9,48,
  | 10,11,
  | 10,45,
  | 10,46,
  | 10,48,
  | 10,51,
  | 11,45,
  | 11,46,
  | 12,16,
  | 12,23,
  | 12,24,
  | 12,36,
  | 12,38,
  | 12,42,
  | 13,22,
  | 13,29,
  | 13,32,
  | 14,18,
  | 14,19,
  | 14,21,
  | 14,26,
  | 14,52,
  | 15,18,
  | 15,27,
  | 15,35,
  | 15,37,
  | 15,47,
  | 15,50,
  | 16,24,
  | 16,36,
  | 16,38,
  | 16,45,
  | 16,53,
  | 17,20,
  | 17,40,
  | 17,44,
  | 17,46,
  | 18,19,
  | 18,31,
  | 18,35,
  | 18,43,
  | 18,47,
  | 20,46,
  | 21,26,
  | 21,30,
  | 21,52,
  | 22,29,
  | 23,42,
  | 23,50,
  | 24,36,
  | 24,38,
  | 24,50,
  | 24,53,
  | 25,28,
  | 25,46,
  | 26,28,
  | 26,30,
  | 27,34,
  | 27,37,
  | 27,50,
  | 28,30,
  | 29,34,
  | 31,43,
  | 31,46,
  | 32,35,
  | 32,37,
  | 33,39,
  | 33,41,
  | 35,37,
  | 35,47,
  | 36,38,
  | 36,50,
  | 37,50,
  | 38,42,
  | 38,50,
  | 39,41,
  | 39,44,
  | 39,46,
  | 42,50,
  | 43,46,
  | 44,46,
  | 45,46,
  | 45,53,
  | 46,48,
  | 46,51,
  | 48,51,
  | 50,53 |];

